data/solutions/recovery/degenerate/intermediate/binding/degenerate_intermediate_instance23/28.sol
Elapsed time: 0.05
Upper bound: 239041420.0
Planning weighted value: 8.93296524481e+11
C[0]=239041420.0
C[1]=238740556.0
C[2]=236272536.0
C[3]=235582658.0
C[4]=232812108.0
C[5]=229738929.0
C[6]=227323731.0
C[7]=226853916.0
C[8]=208180526.0
C[9]=207495997.0
C[10]=200363523.0
C[11]=0.0
y[0]=1
y[1]=7
y[2]=6
y[3]=0
y[4]=0
y[5]=0
y[6]=4
y[7]=6
y[8]=1
y[9]=2
y[10]=10
y[11]=5
y[12]=10
y[13]=7
y[14]=4
y[15]=7
y[16]=7
y[17]=9
y[18]=0
y[19]=9
y[20]=2
y[21]=1
y[22]=8
y[23]=10
y[24]=2
y[25]=2
y[26]=9
y[27]=8
y[28]=1
y[29]=10
y[30]=8
y[31]=3
y[32]=7
y[33]=10
y[34]=1
y[35]=4
y[36]=7
y[37]=8
y[38]=4
y[39]=2
y[40]=6
y[41]=6
y[42]=9
y[43]=8
y[44]=1
y[45]=3
y[46]=1
y[47]=3
y[48]=5
y[49]=1
y[50]=7
y[51]=3
y[52]=2
y[53]=9
y[54]=7
y[55]=10
y[56]=6
y[57]=0
y[58]=4
y[59]=10
y[60]=5
y[61]=9
y[62]=3
y[63]=3
y[64]=5
y[65]=4
y[66]=1
y[67]=0
y[68]=5
y[69]=6
y[70]=10
y[71]=3
y[72]=8
y[73]=4
y[74]=1
y[75]=0
y[76]=6
y[77]=2
